40 14
7 934
5 271
9 41
4 569
8 595
2 490
4 347
4 947
2 421
4 108
4 495
11 807
12 397
4 737
10 82
10 29
10 293
7 476
3 359
12 838
1 590
1 16
12 971
7 68
2 49
11 387
7 515
7 468
12 302
2 714
8 218
8 186
13 767
7 259
1 708
12 319
6 950
5 554
6 366
2 279
